20
10
855066
0
0
13 13 31 97 12 81 4 6 48 127
1
0
13 12 29 76 13 72 6 6 27 160
2
0
22 9 23 98 19 66 5 3 38 120
3
0
17 12 21 92 16 44 5 11 57 122
4
0
11 20 24 55 18 61 7 7 43 149
5
0
20 10 19 73 22 57 5 7 58 138
6
0
22 15 27 78 22 65 8 4 30 148
7
0
26 12 30 74 21 49 10 6 58 167
8
0
14 13 30 85 21 54 7 3 44 133
9
0
24 11 21 64 11 64 4 4 44 122
10
0
24 25 29 75 35 56 9 6 46 124
11
0
17 12 50 69 24 76 8 3 54 144
12
0
12 13 23 81 20 64 7 5 36 119
13
0
12 13 20 108 25 47 10 11 47 135
14
0
19 16 24 91 21 77 3 7 40 126
15
0
22 11 43 77 32 52 5 5 46 113
16
0
26 10 29 83 19 61 3 8 49 150
17
0
28 12 32 107 18 61 6 5 42 116
18
0
22 11 14 82 16 65 8 8 38 155
19
0
16 18 31 73 15 83 4 5 39 130
